benchmarks_vrp/CMT3/tsp_classic/CMT3_1.vrp
NAME: CMT3_1
TYPE: CVRP
COMMENT: 826.14 - Cluster Nr.1
DIMENSION: 14
CAPACITY: 200
EDGE_WEIGHT_TYPE: EUC_2D
NODE_COORD_TYPE: TWOD_COORDS
NODE_COORD_SECTION: 
2 21 24
6 22 27
1 35 35
13 4 18
10 20 26
3 15 30
12 11 31
5 17 34
14 6 38
4 5 30
9 25 24
11 25 30
7 26 27
8 14 37
DEPOT_SECTION: 
1
-1
DEMAND_SECTION: 
1 0
12 7
5 3
11 3
8 11
3 26
4 2
6 11
2 28
14 16
10 9
9 20
13 35
7 27
EOF
