benchmarks_vrp/CMT3/tsp_classic/CMT3_1.tour
NAME: CMT3_1 solution
TYPE: TOUR
TOUR_SECTION:
1 5 8 14 4 13 12 3 10 6 2 9 7 11 -1
-1
EOF